language ESSENCE' 1.0
letting lastdx=103
letting cage be [
[4,11,3,0,0, 0,0, 0,0, 0,0],
[10,16,4,0,0, 0,0, 0,0, 0,0],
[11,1,7,0,0, 0,0, 0,0, 0,0],
[7,6,15,0,0, 0,0, 0,0, 0,0],
[7,1,5,0,0, 0,0, 0,0, 0,0],
[12,3,8,0,0, 0,0, 0,0, 0,0],
[16,13,5,0,0, 0,0, 0,0, 0,0],
[22,7,6,7,7,0,0, 0,0, 0,0],
[35,4,15,3,15,3,16,2,16,1,16],
[14,11,1,12,1,0,0, 0,0, 0,0],
[52,14,12,14,13,14,14,15,14,15,15],
[6,16,16,0,0, 0,0, 0,0, 0,0],
[30,14,11,13,11,13,10,14,10,0,0],
[30,10,5,10,4,9,4,8,4,8,5],
[41,11,5,11,4,12,4,12,5,0,0],
[7,12,12,0,0, 0,0, 0,0, 0,0],
[37,6,5,6,4,6,3,0,0, 0,0],
[15,7,1,0,0, 0,0, 0,0, 0,0],
[21,13,6,14,6,14,7,0,0, 0,0],
[10,2,1,0,0, 0,0, 0,0, 0,0],
[57,5,10,5,11,4,11,4,10,4,9],
[34,1,15,1,14,1,13,1,12,0,0],
[20,13,2,14,2,0,0, 0,0, 0,0],
[22,12,13,12,14,11,14,0,0, 0,0],
[27,3,12,4,12,5,12,0,0, 0,0],
[30,4,1,4,2,4,3,0,0, 0,0],
[51,6,16,7,16,7,15,8,15,8,16],
[15,8,8,8,7,0,0, 0,0, 0,0],
[25,11,9,11,10,11,11,0,0, 0,0],
[5,7,14,0,0, 0,0, 0,0, 0,0],
[36,2,8,2,7,2,6,1,6,0,0],
[1,16,5,0,0, 0,0, 0,0, 0,0],
[12,15,10,0,0, 0,0, 0,0, 0,0],
[9,15,16,0,0, 0,0, 0,0, 0,0],
[1,7,10,0,0, 0,0, 0,0, 0,0],
[20,5,8,6,8,0,0, 0,0, 0,0],
[14,10,2,0,0, 0,0, 0,0, 0,0],
[55,5,16,4,16,5,15,5,14,4,14],
[15,11,12,0,0, 0,0, 0,0, 0,0],
[25,4,7,4,8,3,7,3,6,0,0],
[9,12,9,0,0, 0,0, 0,0, 0,0],
[27,16,7,16,8,16,9,0,0, 0,0],
[10,11,7,11,8,0,0, 0,0, 0,0],
[21,8,6,9,6,9,5,0,0, 0,0],
[51,16,15,16,14,16,13,15,13,15,12],
[12,8,1,0,0, 0,0, 0,0, 0,0],
[2,9,14,0,0, 0,0, 0,0, 0,0],
[16,16,1,0,0, 0,0, 0,0, 0,0],
[22,13,16,13,15,12,15,12,16,0,0],
[12,2,12,2,13,0,0, 0,0, 0,0],
[24,8,14,8,13,7,13,0,0, 0,0],
[8,2,4,0,0, 0,0, 0,0, 0,0],
[24,14,8,14,9,0,0, 0,0, 0,0],
[21,3,4,4,4,5,4,5,5,0,0],
[5,5,3,0,0, 0,0, 0,0, 0,0],
[28,10,14,10,13,11,13,0,0, 0,0],
[10,13,7,0,0, 0,0, 0,0, 0,0],
[24,12,2,11,2,0,0, 0,0, 0,0],
[35,3,1,3,2,3,3,2,3,2,2],
[19,5,6,5,7,0,0, 0,0, 0,0],
[37,14,1,13,1,15,1,15,2,0,0],
[38,15,11,16,11,16,10,16,12,0,0],
[14,6,7,6,6,0,0, 0,0, 0,0],
[19,2,15,2,14,0,0, 0,0, 0,0],
[14,11,16,0,0, 0,0, 0,0, 0,0],
[13,9,8,0,0, 0,0, 0,0, 0,0],
[5,10,11,10,12,0,0, 0,0, 0,0],
[26,14,4,14,3,15,3,15,4,0,0],
[39,10,9,10,8,10,7,9,7,10,6],
[30,4,13,5,13,3,13,3,14,0,0],
[40,5,1,6,1,6,2,5,2,7,2],
[12,5,9,6,9,0,0, 0,0, 0,0],
[36,3,9,2,9,2,10,0,0, 0,0],
[9,3,10,0,0, 0,0, 0,0, 0,0],
[15,9,13,0,0, 0,0, 0,0, 0,0],
[16,1,2,1,1,0,0, 0,0, 0,0],
[20,2,11,3,11,0,0, 0,0, 0,0],
[5,1,11,0,0, 0,0, 0,0, 0,0],
[36,11,6,12,6,12,7,12,8,0,0],
[43,15,5,14,5,15,6,16,6,15,7],
[19,12,11,12,10,0,0, 0,0, 0,0],
[13,14,16,14,15,0,0, 0,0, 0,0],
[11,9,12,0,0, 0,0, 0,0, 0,0],
[3,13,14,0,0, 0,0, 0,0, 0,0],
[16,9,16,9,15,0,0, 0,0, 0,0],
[28,1,3,1,4,0,0, 0,0, 0,0],
[22,13,12,13,13,0,0, 0,0, 0,0],
[5,11,15,0,0, 0,0, 0,0, 0,0],
[3,13,8,13,9,0,0, 0,0, 0,0],
[19,1,8,1,9,1,10,0,0, 0,0],
[18,2,5,3,5,0,0, 0,0, 0,0],
[18,4,5,4,6,0,0, 0,0, 0,0],
[13,6,10,6,11,0,0, 0,0, 0,0],
[23,7,3,8,3,8,2,9,2,0,0],
[16,7,4,7,5,0,0, 0,0, 0,0],
[18,7,8,7,9,0,0, 0,0, 0,0],
[38,8,11,8,12,9,11,0,0, 0,0],
[12,9,1,10,1,0,0, 0,0, 0,0],
[22,9,3,10,3,0,0, 0,0, 0,0],
[21,10,15,10,16,0,0, 0,0, 0,0],
[13,12,3,0,0, 0,0, 0,0, 0,0],
[20,13,3,13,4,0,0, 0,0, 0,0],
[18,15,8,15,9,0,0, 0,0, 0,0],
[7,16,2,16,3,0,0, 0,0, 0,0]
]
